Route 1: 92 95 62 67 94 84 56 66 91 80
Route 2: 65 69 98 88 90 55 68 70 100
Route 3: 82 52 99 86 57 74 24
Route 4: 72 42 61 81 54 96 93
Route 5: 83 64 19 18 22 49 20 48 25
Route 6: 47 14 12 53 78 17 60
Route 7: 71 38 41 35 37
Route 8: 15 11 16 9 10 13
Route 9: 5 45 2 7 6 8 46 4 1
Route 10: 63 76 51 85 50
Route 11: 39 36 44 40 43
Route 12: 73 79 3
Route 13: 59 75 87 97 58 77
Route 14: 23 21 89
Route 15: 27 29 31 30 34 26 32
Route 16: 28 33
Vehicles: 16
Distance: 1938.50
